26208
1 0 0 0 1 0 1 0 1 0 0 0 0 1 0 0 0 0 1 1 0 1 0 1 1 1 0 0 1 0
18 19 21 24 21 6 21 28 24 28 4 28 13 13 28 18 13 13 18 0 18 24 21 24 23 18 24 19 4 21 19 19 4 21 28 6 8 8 24 21 18 8 6 4 8 19 13 21 19 8 24 24 24 21 8 6 18 8 18 25 4 0 18 8 13 25 0 19 28 25 18 6 19 8 23 23 13 23 8 24 23 0 8 25 4 13 19 21 24 25 28 6 25 25 0 13 28 6 0 28 28 21 25 18 4 0 4 24 18 13 19 4 18 6 6 8 28 25 0 8 19 25 28 19 4 21 21 6 19 0 28 24 25 23 13 8 13 13 28 23 6 18 28 25 25 23 24 21 18 25 24 0 23 0 8 28 21 21 13 13 13 0 13 24 23 18 23 4 13 21 23 8 19 0 4 0 0 23 4 23 23 21 24 19 6 8 28 23 0 24 0 24 19 4 25 6 25 21 23 19
